
Log for '/var/folders/wb/6pm8s60x797b47qg789x82sc0000gn/T/a67a740893e443e0a9b0fe210ddf6d49-pulp.lp' Clone_1 (V12.10.0.0) Thu Oct  8 09:01:39 2020


Log for '/var/folders/wb/6pm8s60x797b47qg789x82sc0000gn/T/a67a740893e443e0a9b0fe210ddf6d49-pulp.lp' Clone_1 (V12.10.0.0) Thu Oct  8 11:01:37 2020

Tried aggregator 1 time.
LP Presolve eliminated 6433 rows and 2484 columns.
All rows and columns eliminated.
Presolve time = 0.00 sec. (2.29 ticks)
Parallel mode: deterministic, using up to 2 threads for concurrent optimization:
 * Starting dual Simplex on 1 thread...
 * Starting primal Simplex on 1 thread...

Log for '/var/folders/wb/6pm8s60x797b47qg789x82sc0000gn/T/a67a740893e443e0a9b0fe210ddf6d49-pulp.lp' Clone_1 (V12.10.0.0) Thu Oct  8 11:01:37 2020

Using steepest-edge.

Total time on 2 threads = 0.01 sec. (196.80 ticks)

Dual simplex solved model.


Log for '/var/folders/wb/6pm8s60x797b47qg789x82sc0000gn/T/f65b5bc1757746f6854219a0702bae3a-pulp.lp' Clone_1 (V12.10.0.0) Thu Oct  8 11:01:41 2020

Advanced basis not built.

Log for '/var/folders/wb/6pm8s60x797b47qg789x82sc0000gn/T/f65b5bc1757746f6854219a0702bae3a-pulp.lp' Clone_1 (V12.10.0.0) Thu Oct  8 13:01:39 2020

Tried aggregator 1 time.
LP Presolve eliminated 6433 rows and 2484 columns.
All rows and columns eliminated.
Presolve time = 0.00 sec. (2.29 ticks)

Log for '/var/folders/wb/6pm8s60x797b47qg789x82sc0000gn/T/f65b5bc1757746f6854219a0702bae3a-pulp.lp' Clone_1 (V12.10.0.0) Thu Oct  8 13:01:39 2020

Using steepest-edge.
Parallel mode: deterministic, using up to 2 threads for concurrent optimization:
 * Starting dual Simplex on 1 thread...
 * Starting primal Simplex on 1 thread...

Total time on 2 threads = 0.01 sec. (196.81 ticks)

Dual simplex solved model.


Log for '/var/folders/wb/6pm8s60x797b47qg789x82sc0000gn/T/04dcfd840dd749aea6b4345650fd3fb5-pulp.lp' Clone_1 (V12.10.0.0) Thu Oct  8 13:02:26 2020

Advanced basis not built.

Log for '/var/folders/wb/6pm8s60x797b47qg789x82sc0000gn/T/04dcfd840dd749aea6b4345650fd3fb5-pulp.lp' Clone_1 (V12.10.0.0) Thu Oct  8 15:01:43 2020

Tried aggregator 1 time.
LP Presolve eliminated 27697 rows and 11088 columns.
All rows and columns eliminated.
Presolve time = 0.01 sec. (9.73 ticks)

Log for '/var/folders/wb/6pm8s60x797b47qg789x82sc0000gn/T/04dcfd840dd749aea6b4345650fd3fb5-pulp.lp' Clone_1 (V12.10.0.0) Thu Oct  8 15:01:43 2020

Using steepest-edge.
Parallel mode: deterministic, using up to 2 threads for concurrent optimization:
 * Starting dual Simplex on 1 thread...
 * Starting primal Simplex on 1 thread...

Total time on 2 threads = 0.04 sec. (216.72 ticks)

Dual simplex solved model.


Log for '/var/folders/wb/6pm8s60x797b47qg789x82sc0000gn/T/17d3a35c3b724c5d89b40e1e9b497f4f-pulp.lp' Clone_1 (V12.10.0.0) Thu Oct  8 15:09:58 2020


Log for '/var/folders/wb/6pm8s60x797b47qg789x82sc0000gn/T/17d3a35c3b724c5d89b40e1e9b497f4f-pulp.lp' Clone_1 (V12.10.0.0) Thu Oct  8 17:12:27 2020

Tried aggregator 1 time.
LP Presolve eliminated 21877 rows and 8028 columns.
All rows and columns eliminated.
Presolve time = 0.01 sec. (7.75 ticks)

Log for '/var/folders/wb/6pm8s60x797b47qg789x82sc0000gn/T/17d3a35c3b724c5d89b40e1e9b497f4f-pulp.lp' Clone_1 (V12.10.0.0) Thu Oct  8 17:12:27 2020

Using steepest-edge.
Parallel mode: deterministic, using up to 2 threads for concurrent optimization:
 * Starting dual Simplex on 1 thread...
 * Starting primal Simplex on 1 thread...

Total time on 2 threads = 0.03 sec. (211.32 ticks)

Dual simplex solved model.


Log for '/var/folders/wb/6pm8s60x797b47qg789x82sc0000gn/T/cb4f16882e214426bee075dd5b9b4ed7-pulp.lp' Clone_1 (V12.10.0.0) Thu Oct  8 20:07:35 2020

Tried aggregator 1 time.
LP Presolve eliminated 21877 rows and 8028 columns.
All rows and columns eliminated.
Presolve time = 0.01 sec. (7.77 ticks)
Parallel mode: deterministic, using up to 2 threads for concurrent optimization:
 * Starting dual Simplex on 1 thread...
 * Starting primal Simplex on 1 thread...

Log for '/var/folders/wb/6pm8s60x797b47qg789x82sc0000gn/T/cb4f16882e214426bee075dd5b9b4ed7-pulp.lp' Clone_1 (V12.10.0.0) Thu Oct  8 20:07:35 2020

Using steepest-edge.

Total time on 2 threads = 0.03 sec. (211.33 ticks)

Dual simplex solved model.


Log for '/var/folders/wb/6pm8s60x797b47qg789x82sc0000gn/T/ab3942bcaebb4498a4232a05ca13fef7-pulp.lp' Clone_1 (V12.10.0.0) Thu Oct  8 20:34:28 2020


Log for '/var/folders/wb/6pm8s60x797b47qg789x82sc0000gn/T/64948af0172b4d999c4bcfe65c29be23-pulp.lp' Clone_1 (V12.10.0.0) Thu Oct  8 23:14:06 2020


Log for '/var/folders/wb/6pm8s60x797b47qg789x82sc0000gn/T/64948af0172b4d999c4bcfe65c29be23-pulp.lp' Clone_1 (V12.10.0.0) Fri Oct  9 04:05:18 2020

Tried aggregator 1 time.
LP Presolve eliminated 21877 rows and 8028 columns.
All rows and columns eliminated.
Presolve time = 0.01 sec. (7.75 ticks)

Log for '/var/folders/wb/6pm8s60x797b47qg789x82sc0000gn/T/64948af0172b4d999c4bcfe65c29be23-pulp.lp' Clone_1 (V12.10.0.0) Fri Oct  9 04:05:18 2020

Using steepest-edge.
Parallel mode: deterministic, using up to 2 threads for concurrent optimization:
 * Starting dual Simplex on 1 thread...
 * Starting primal Simplex on 1 thread...

Total time on 2 threads = 0.02 sec. (211.32 ticks)

Dual simplex solved model.


Log for '/var/folders/wb/6pm8s60x797b47qg789x82sc0000gn/T/ccc499bc150449a5a7ad3d4317658b28-pulp.lp' Clone_1 (V12.10.0.0) Fri Oct  9 04:12:30 2020


Log for '/var/folders/wb/6pm8s60x797b47qg789x82sc0000gn/T/ccc499bc150449a5a7ad3d4317658b28-pulp.lp' Clone_1 (V12.10.0.0) Fri Oct  9 09:06:50 2020

Tried aggregator 1 time.
LP Presolve eliminated 21877 rows and 8028 columns.
All rows and columns eliminated.
Presolve time = 0.01 sec. (7.77 ticks)

Log for '/var/folders/wb/6pm8s60x797b47qg789x82sc0000gn/T/ccc499bc150449a5a7ad3d4317658b28-pulp.lp' Clone_1 (V12.10.0.0) Fri Oct  9 09:06:50 2020

Using steepest-edge.
Parallel mode: deterministic, using up to 2 threads for concurrent optimization:
 * Starting dual Simplex on 1 thread...
 * Starting primal Simplex on 1 thread...

Total time on 2 threads = 0.03 sec. (211.33 ticks)

Dual simplex solved model.

